(set-info :source |printed by MathSAT|)
(declare-fun a1551570219 () (_ BitVec 32))
(declare-fun a1379546326 () (_ BitVec 32))
(declare-fun a1554992028 () (_ BitVec 32))
(declare-fun a1669722568 () (_ BitVec 32))
(declare-fun a1136264456 () (_ BitVec 32))
(declare-fun a1041640432 () (_ BitVec 32))
(declare-fun a1431178715 () (_ BitVec 32))
(declare-fun a1649592707 () (_ BitVec 32))
(declare-fun a1933271548 () (_ BitVec 32))
(declare-fun a1591641889 () (_ BitVec 32))
(declare-fun a1868984816 () (_ BitVec 32))
(declare-fun a43901077 () (_ BitVec 32))
(declare-fun a1944816302 () (_ BitVec 32))
(declare-fun a938827910 () (_ BitVec 32))
(declare-fun a231305105 () (_ BitVec 32))
(declare-fun a1491567675 () (_ BitVec 32))
(declare-fun a469914660 () (_ BitVec 32))
(declare-fun a1294378386 () (_ BitVec 32))
(declare-fun a2077863541 () (_ BitVec 32))
(declare-fun a510889416 () (_ BitVec 32))

*:
(assert (let ((.def_6641 (= a1551570219 (_ bv34 32)))).def_6641))
(assert (let ((.def_6645 (= a1551570219 (_ bv32 32)))).def_6645))
(assert (let ((.def_6649 (= a1551570219 (_ bv33 32)))).def_6649))
(assert (let ((.def_6653 (= a1551570219 (_ bv36 32)))).def_6653))
(assert (let ((.def_6657 (= a1551570219 (_ bv35 32)))).def_6657))

reach_error N1:
(assert false)
(assert (let ((.def_6641 (= a1551570219 (_ bv34 32)))).def_6641))
(assert (let ((.def_6645 (= a1551570219 (_ bv32 32)))).def_6645))
(assert (let ((.def_6649 (= a1551570219 (_ bv33 32)))).def_6649))
(assert (let ((.def_6653 (= a1551570219 (_ bv36 32)))).def_6653))
(assert (let ((.def_6657 (= a1551570219 (_ bv35 32)))).def_6657))

main N1928:
(assert (let ((.def_11224 (= a1379546326 (_ bv12 32)))).def_11224))
(assert (let ((.def_11227 (= a1554992028 (_ bv12 32)))).def_11227))
(assert (let ((.def_6645 (= a1551570219 (_ bv32 32)))).def_6645))
(assert (let ((.def_11230 (= a1669722568 (_ bv33 32)))).def_11230))
(assert (let ((.def_6649 (= a1551570219 (_ bv33 32)))).def_6649))
(assert (let ((.def_6641 (= a1551570219 (_ bv34 32)))).def_6641))
(assert (let ((.def_6653 (= a1551570219 (_ bv36 32)))).def_6653))
(assert (let ((.def_6657 (= a1551570219 (_ bv35 32)))).def_6657))
(assert (let ((.def_16299 (= a1136264456 (_ bv36 32)))).def_16299))
(assert (let ((.def_18747 (= a1041640432 (_ bv8 32)))).def_18747))
(assert (let ((.def_19760 (= a1431178715 (_ bv33 32)))).def_19760))
(assert (let ((.def_19762 (= a1431178715 (_ bv34 32)))).def_19762))
(assert (let ((.def_19764 (= a1041640432 (_ bv10 32)))).def_19764))
(assert (let ((.def_19766 (= a1041640432 (_ bv11 32)))).def_19766))
(assert (let ((.def_19769 (= a1649592707 (_ bv34 32)))).def_19769))
(assert (let ((.def_19771 (= a1041640432 (_ bv9 32)))).def_19771))
(assert (let ((.def_19774 (= a1933271548 (_ bv6 32)))).def_19774))
(assert (let ((.def_19776 (= a1649592707 (_ bv36 32)))).def_19776))
(assert (let ((.def_19779 (= a1591641889 (_ bv5 32)))).def_19779))
(assert (let ((.def_37316 (= a1868984816 (_ bv8 32)))).def_37316))
(assert (let ((.def_37319 (= a43901077 (_ bv33 32)))).def_37319))
(assert (let ((.def_37321 (= a43901077 (_ bv32 32)))).def_37321))
(assert (let ((.def_37324 (= a1944816302 (_ bv32 32)))).def_37324))
(assert (let ((.def_37326 (= a1041640432 (_ bv6 32)))).def_37326))
(assert (let ((.def_37328 (= a1944816302 (_ bv35 32)))).def_37328))
(assert (let ((.def_98749 (= a938827910 (_ bv33 32)))).def_98749))
(assert (let ((.def_98752 (= a231305105 (_ bv13 32)))).def_98752))
(assert (let ((.def_98755 (= a1491567675 (_ bv16 32)))).def_98755))
(assert (let ((.def_98758 (= a469914660 (_ bv8 32)))).def_98758))
(assert (let ((.def_109803 (= a1294378386 (_ bv11 32)))).def_109803))
(assert (let ((.def_109806 (= a2077863541 (_ bv11 32)))).def_109806))
(assert (let ((.def_109808 (= a1554992028 (_ bv10 32)))).def_109808))
(assert (let ((.def_109810 (= a1041640432 (_ bv5 32)))).def_109810))
(assert (let ((.def_109812 (= a469914660 (_ bv12 32)))).def_109812))
(assert (let ((.def_109815 (= a510889416 (_ bv32 32)))).def_109815))
(assert (let ((.def_109817 (= a2077863541 (_ bv14 32)))).def_109817))

